
  22   10
  10   10   10   10   10   10   10   10   10   10

   0   0   0   0   0   0   0   0   0   0   0   3 2 7 10 
   2   0   0   0   0  10   0   0   0   0   0   1 3 
  10   0   0   0   0   0   0   0  10   0   0   1 4 
  10   0   0  10   0   0   0   0   0   0   0   1 5 
   8   0   0   0   0   0  10   0   0   0   0   1 6 
   6   0   0   0   0  10   0   0   0   0   0   2 15 8 
   2   0  10   0   0   0   0   0   0   0   0   1 8 
  10   0   0  10   0   0   0   0   0   0   0   2 14 9 
   7   0   0   0   0   0   0   0   0   0  10   2 19 11 
   8   0  10   0   0   0   0   0   0   0   0   2 14 13 
   7   0   0   0   0   0   0   0  10   0   0   1 12 
   6   0   0  10   0   0   0   0   0   0   0   1 13 
  10   0   0   0   0   0   0   0   0  10   0   2 21 16 
  10   0   0   0   0   0   0   0   0   0  10   2 19 16 
  10   0   0   0   0  10   0   0   0   0   0   2 19 16 
   2   0   0   0   0   0  10   0   0   0   0   1 17 
   8   0   0   0   0   0   0   0  10   0   0   1 18 
   8  10   0   0   0   0   0   0   0   0   0   1 20 
   7   0   0   0  10   0   0   0   0   0   0   1 20 
   5   0  10   0   0   0   0   0   0   0   0   1 22
   1   0  10   0   0   0   0   0   0   0   0   1 22
   0   0   0   0   0   0   0   0   0   0   0   0 
